Cost: 317
0-24-23-43-22-1-33-2-30-0
0-26-12-9-25-32-40-17-0
0-46-8-19-14-7-0
0-4-45-29-15-13-27-52-34-0
Cost: 317
0-24-23-43-22-1-33-2-30-0
0-26-12-9-25-32-40-17-0
0-46-8-19-14-7-0
0-4-45-29-15-13-27-52-34-0
Cost: 317
0-24-23-43-22-1-33-2-30-0
0-26-12-9-25-32-40-17-0
0-46-8-19-14-7-0
0-4-45-29-15-13-27-52-34-0
Cost: 317
0-24-23-43-22-1-33-2-30-0
0-26-12-9-25-32-40-17-0
0-46-8-19-14-7-0
0-4-45-29-15-13-27-52-34-0
Cost: 317
0-24-23-43-22-1-33-2-30-0
0-26-12-9-25-32-40-17-0
0-46-8-19-14-7-0
0-4-45-29-15-13-27-52-34-0
Cost: 317
0-24-23-43-22-1-33-2-30-0
0-26-12-9-25-32-40-17-0
0-46-8-19-14-7-0
0-4-45-29-15-13-27-52-34-0
Cost: 317
0-24-23-43-22-1-33-2-30-0
0-26-12-9-25-32-40-17-0
0-46-8-19-14-7-0
0-4-45-29-15-13-27-52-34-0
Cost: 317
0-24-23-43-22-1-33-2-30-0
0-26-12-9-25-32-40-17-0
0-46-8-19-14-7-0
0-4-45-29-15-13-27-52-34-0
Cost: 317
0-24-23-43-22-1-33-2-30-0
0-26-12-9-25-32-40-17-0
0-46-8-19-14-7-0
0-4-45-29-15-13-27-52-34-0
Cost: 317
0-24-23-43-22-1-33-2-30-0
0-26-12-9-25-32-40-17-0
0-46-8-19-14-7-0
0-4-45-29-15-13-27-52-34-0
Cost: 317
0-46-8-19-14-7-0
0-30-2-33-1-22-43-23-24-0
0-26-12-9-25-32-40-17-0
0-4-45-29-15-13-27-52-34-0
Cost: 317
0-46-8-19-14-7-0
0-30-2-33-1-22-43-23-24-0
0-26-12-9-25-32-40-17-0
0-4-45-29-15-13-27-52-34-0
Cost: 317
0-46-8-19-14-7-0
0-30-2-33-1-22-43-23-24-0
0-26-12-9-25-32-40-17-0
0-4-45-29-15-13-27-52-34-0
Cost: 317
0-46-8-19-14-7-0
0-30-2-33-1-22-43-23-24-0
0-26-12-9-25-32-40-17-0
0-4-45-29-15-13-27-52-34-0
Cost: 317
0-46-8-19-14-7-0
0-30-2-33-1-22-43-23-24-0
0-26-12-9-25-32-40-17-0
0-4-45-29-15-13-27-52-34-0
Cost: 317
0-46-8-19-14-7-0
0-30-2-33-1-22-43-23-24-0
0-26-12-9-25-32-40-17-0
0-4-45-29-15-13-27-52-34-0
Cost: 317
0-46-8-19-14-7-0
0-30-2-33-1-22-43-23-24-0
0-26-12-9-25-32-40-17-0
0-4-45-29-15-13-27-52-34-0
Cost: 317
0-46-8-19-14-7-0
0-30-2-33-1-22-43-23-24-0
0-26-12-9-25-32-40-17-0
0-4-45-29-15-13-27-52-34-0
Cost: 317
0-46-8-19-14-7-0
0-30-2-33-1-22-43-23-24-0
0-26-12-9-25-32-40-17-0
0-4-45-29-15-13-27-52-34-0
Cost: 317
0-46-8-19-14-7-0
0-30-2-33-1-22-43-23-24-0
0-26-12-9-25-32-40-17-0
0-4-45-29-15-13-27-52-34-0
Cost: 317
0-46-8-19-14-7-0
0-30-2-33-1-22-43-23-24-0
0-26-12-9-25-32-40-17-0
0-4-45-29-15-13-27-52-34-0
Cost: 317
0-46-8-19-14-7-0
0-30-2-33-1-22-43-23-24-0
0-26-12-9-25-32-40-17-0
0-4-45-29-15-13-27-52-34-0
Cost: 317
0-26-12-39-9-25-32-17-0
0-46-8-19-14-7-0
0-34-52-27-13-15-29-45-4-0
0-24-23-43-22-1-33-2-30-0
Cost: 317
0-46-8-19-14-7-0
0-30-2-33-1-22-43-23-24-0
0-26-12-9-25-32-40-17-0
0-4-45-29-15-13-27-52-34-0
Cost: 317
0-46-8-19-14-7-0
0-30-2-33-1-22-43-23-24-0
0-26-12-9-25-32-40-17-0
0-4-45-29-15-13-27-52-34-0
Cost: 317
0-46-8-19-14-7-0
0-30-2-33-1-22-43-23-24-0
0-26-12-9-25-32-40-17-0
0-4-45-29-15-13-27-52-34-0
Cost: 317
0-34-52-27-13-15-29-45-4-0
0-7-14-19-8-46-0
0-24-23-43-22-1-33-2-30-0
0-17-32-25-9-39-12-26-0
Cost: 317
0-51-24-49-23-43-22-1-33-2-0
0-30-29-15-13-27-4-0
0-46-8-19-14-35-7-26-0
0-17-40-32-25-9-12-0
Cost: 317
0-51-24-49-23-43-22-1-33-2-0
0-30-29-15-13-27-4-0
0-12-9-25-32-40-17-0
0-34-46-8-19-14-7-26-0
Cost: 317
0-46-8-19-14-7-0
0-24-23-43-22-1-33-2-30-0
0-17-40-32-25-9-12-26-0
0-34-52-27-13-15-29-45-4-0
Cost: 317
0-26-12-39-9-25-32-17-0
0-30-2-33-1-22-43-23-24-0
0-4-45-29-15-13-27-52-34-0
0-7-14-19-8-46-0
